Diamond Si conventional cell; atom 5 displaced by (0.020, -0.012, 0.008) Angstrom
1.0
5.430000000000  0.000000000000  0.000000000000
0.000000000000  5.430000000000  0.000000000000
0.000000000000  0.000000000000  5.430000000000
Si
8
Direct
0.000000000000  0.000000000000  0.000000000000
0.000000000000  0.500000000000  0.500000000000
0.500000000000  0.000000000000  0.500000000000
0.500000000000  0.500000000000  0.000000000000
0.253683241252  0.247790055249  0.251473296501
0.250000000000  0.750000000000  0.750000000000
0.750000000000  0.250000000000  0.750000000000
0.750000000000  0.750000000000  0.250000000000
