Diamond Si conventional cell (8 atoms), a = 5.43 Angstrom
1.0
5.430000000000  0.000000000000  0.000000000000
0.000000000000  5.430000000000  0.000000000000
0.000000000000  0.000000000000  5.430000000000
Si
8
Direct
0.000000000000  0.000000000000  0.000000000000
0.000000000000  0.500000000000  0.500000000000
0.500000000000  0.000000000000  0.500000000000
0.500000000000  0.500000000000  0.000000000000
0.250000000000  0.250000000000  0.250000000000
0.250000000000  0.750000000000  0.750000000000
0.750000000000  0.250000000000  0.750000000000
0.750000000000  0.750000000000  0.250000000000
